-146.0 10.0 7.0 2.0 10.0 4.0 7.0 1.0 9.0 7.0 2.0 8.0 4.0 5.0 10.0 6.0 5.0 9.0 0.0 7.0 8.0 7.0 1.0 3.0 3.0 6.0 5.0 
10.0 -130.0 5.0 6.0 2.0 4.0 7.0 7.0 5.0 1.0 10.0 4.0 1.0 4.0 1.0 3.0 9.0 10.0 5.0 8.0 7.0 8.0 5.0 8.0 0.0 0.0 0.0 
7.0 5.0 -112.0 9.0 1.0 2.0 5.0 10.0 8.0 3.0 4.0 7.0 1.0 2.0 8.0 0.0 4.0 10.0 0.0 1.0 8.0 0.0 7.0 7.0 1.0 1.0 1.0 
2.0 6.0 9.0 -118.0 6.0 4.0 0.0 10.0 2.0 10.0 7.0 8.0 2.0 7.0 3.0 1.0 3.0 2.0 1.0 2.0 9.0 2.0 4.0 5.0 6.0 3.0 4.0 
10.0 2.0 1.0 6.0 -163.0 5.0 2.0 8.0 6.0 8.0 6.0 9.0 9.0 5.0 6.0 4.0 10.0 7.0 6.0 4.0 0.0 10.0 5.0 8.0 7.0 10.0 9.0 
4.0 4.0 2.0 4.0 5.0 -126.0 0.0 1.0 3.0 8.0 0.0 6.0 2.0 1.0 7.0 6.0 6.0 10.0 10.0 7.0 5.0 9.0 9.0 7.0 2.0 2.0 6.0 
7.0 7.0 5.0 0.0 2.0 0.0 -109.0 8.0 4.0 2.0 0.0 10.0 7.0 4.0 0.0 0.0 5.0 5.0 0.0 8.0 6.0 7.0 3.0 2.0 3.0 4.0 10.0 
1.0 7.0 10.0 10.0 8.0 1.0 8.0 -138.0 10.0 6.0 8.0 8.0 9.0 8.0 5.0 3.0 5.0 0.0 8.0 8.0 5.0 1.0 0.0 0.0 2.0 2.0 5.0 
9.0 5.0 8.0 2.0 6.0 3.0 4.0 10.0 -129.0 10.0 1.0 3.0 3.0 4.0 6.0 2.0 6.0 3.0 8.0 7.0 6.0 4.0 2.0 7.0 1.0 8.0 1.0 
7.0 1.0 3.0 10.0 8.0 8.0 2.0 6.0 10.0 -135.0 9.0 0.0 4.0 9.0 6.0 2.0 8.0 6.0 0.0 5.0 3.0 0.0 8.0 0.0 5.0 8.0 7.0 
2.0 10.0 4.0 7.0 6.0 0.0 0.0 8.0 1.0 9.0 -136.0 10.0 9.0 4.0 2.0 8.0 2.0 10.0 8.0 1.0 2.0 6.0 2.0 6.0 2.0 8.0 9.0 
8.0 4.0 7.0 8.0 9.0 6.0 10.0 8.0 3.0 0.0 10.0 -119.0 6.0 6.0 3.0 6.0 0.0 5.0 1.0 6.0 1.0 0.0 0.0 0.0 2.0 5.0 5.0 
4.0 1.0 1.0 2.0 9.0 2.0 7.0 9.0 3.0 4.0 9.0 6.0 -138.0 7.0 1.0 1.0 8.0 0.0 6.0 9.0 8.0 9.0 9.0 5.0 10.0 4.0 4.0 
5.0 4.0 2.0 7.0 5.0 1.0 4.0 8.0 4.0 9.0 4.0 6.0 7.0 -136.0 9.0 1.0 9.0 0.0 4.0 2.0 3.0 9.0 7.0 7.0 8.0 6.0 5.0 
10.0 1.0 8.0 3.0 6.0 7.0 0.0 5.0 6.0 6.0 2.0 3.0 1.0 9.0 -124.0 7.0 9.0 0.0 2.0 2.0 8.0 4.0 9.0 0.0 5.0 5.0 6.0 
6.0 3.0 0.0 1.0 4.0 6.0 0.0 3.0 2.0 2.0 8.0 6.0 1.0 1.0 7.0 -106.0 3.0 10.0 4.0 6.0 5.0 9.0 2.0 7.0 1.0 7.0 2.0 
5.0 9.0 4.0 3.0 10.0 6.0 5.0 5.0 6.0 8.0 2.0 0.0 8.0 9.0 9.0 3.0 -136.0 2.0 0.0 0.0 1.0 7.0 8.0 2.0 5.0 10.0 9.0 
9.0 10.0 10.0 2.0 7.0 10.0 5.0 0.0 3.0 6.0 10.0 5.0 0.0 0.0 0.0 10.0 2.0 -125.0 3.0 5.0 0.0 5.0 5.0 8.0 4.0 0.0 6.0 
0.0 5.0 0.0 1.0 6.0 10.0 0.0 8.0 8.0 0.0 8.0 1.0 6.0 4.0 2.0 4.0 0.0 3.0 -96.0 1.0 5.0 8.0 5.0 5.0 0.0 3.0 3.0 
7.0 8.0 1.0 2.0 4.0 7.0 8.0 8.0 7.0 5.0 1.0 6.0 9.0 2.0 2.0 6.0 0.0 5.0 1.0 -124.0 5.0 5.0 5.0 10.0 3.0 1.0 6.0 
8.0 7.0 8.0 9.0 0.0 5.0 6.0 5.0 6.0 3.0 2.0 1.0 8.0 3.0 8.0 5.0 1.0 0.0 5.0 5.0 -120.0 6.0 5.0 1.0 5.0 6.0 2.0 
7.0 8.0 0.0 2.0 10.0 9.0 7.0 1.0 4.0 0.0 6.0 0.0 9.0 9.0 4.0 9.0 7.0 5.0 8.0 5.0 6.0 -132.0 2.0 1.0 5.0 6.0 2.0 
1.0 5.0 7.0 4.0 5.0 9.0 3.0 0.0 2.0 8.0 2.0 0.0 9.0 7.0 9.0 2.0 8.0 5.0 5.0 5.0 5.0 2.0 -119.0 9.0 1.0 2.0 4.0 
3.0 8.0 7.0 5.0 8.0 7.0 2.0 0.0 7.0 0.0 6.0 0.0 5.0 7.0 0.0 7.0 2.0 8.0 5.0 10.0 1.0 1.0 9.0 -127.0 10.0 0.0 9.0 
3.0 0.0 1.0 6.0 7.0 2.0 3.0 2.0 1.0 5.0 2.0 2.0 10.0 8.0 5.0 1.0 5.0 4.0 0.0 3.0 5.0 5.0 1.0 10.0 -100.0 2.0 7.0 
6.0 0.0 1.0 3.0 10.0 2.0 4.0 2.0 8.0 8.0 8.0 5.0 4.0 6.0 5.0 7.0 10.0 0.0 3.0 1.0 6.0 6.0 2.0 0.0 2.0 -115.0 6.0 
5.0 0.0 1.0 4.0 9.0 6.0 10.0 5.0 1.0 7.0 9.0 5.0 4.0 5.0 6.0 2.0 9.0 6.0 3.0 6.0 2.0 2.0 4.0 9.0 7.0 6.0 -133.0 

